(declare-fun ADDR!1 () Int)
(declare-fun ADDR!10 () Int)
(declare-fun ADDR!11 () Int)
(declare-fun ADDR!12 () Int)
(declare-fun ADDR!13 () Int)
(declare-fun ADDR!14 () Int)
(declare-fun ADDR!15 () Int)
(declare-fun ADDR!16 () Int)
(declare-fun ADDR!17 () Int)
(declare-fun ADDR!18 () Int)
(declare-fun ADDR!19 () Int)
(declare-fun ADDR!2 () Int)
(declare-fun ADDR!20 () Int)
(declare-fun ADDR!21 () Int)
(declare-fun ADDR!22 () Int)
(declare-fun ADDR!23 () Int)
(declare-fun ADDR!24 () Int)
(declare-fun ADDR!25 () Int)
(declare-fun ADDR!26 () Int)
(declare-fun ADDR!27 () Int)
(declare-fun ADDR!3 () Int)
(declare-fun ADDR!4 () Int)
(declare-fun ADDR!5 () Int)
(declare-fun ADDR!6 () Int)
(declare-fun ADDR!7 () Int)
(declare-fun ADDR!8 () Int)
(declare-fun ADDR!9 () Int)
(declare-fun MEM!1 () Int)
(declare-fun MEM!10 () Int)
(declare-fun MEM!11 () Int)
(declare-fun MEM!12 () Int)
(declare-fun MEM!13 () Int)
(declare-fun MEM!14 () Int)
(declare-fun MEM!15 () Int)
(declare-fun MEM!16 () Int)
(declare-fun MEM!17 () Int)
(declare-fun MEM!18 () Int)
(declare-fun MEM!19 () Int)
(declare-fun MEM!2 () Int)
(declare-fun MEM!20 () Int)
(declare-fun MEM!21 () Int)
(declare-fun MEM!22 () Int)
(declare-fun MEM!23 () Int)
(declare-fun MEM!24 () Int)
(declare-fun MEM!25 () Int)
(declare-fun MEM!26 () Int)
(declare-fun MEM!27 () Int)
(declare-fun MEM!3 () Int)
(declare-fun MEM!4 () Int)
(declare-fun MEM!5 () Int)
(declare-fun MEM!6 () Int)
(declare-fun MEM!7 () Int)
(declare-fun MEM!8 () Int)
(declare-fun MEM!9 () Int)
(declare-fun __main__.balance () Int)
(declare-fun ap!<root>@5 () Int)
(declare-fun fp!<51=read/root> () Int)
(declare-fun fp!<58=write/root> () Int)
(declare-fun fp!<root> () Int)
(declare-fun pedersen!end () Int)
(declare-fun pedersen!start () Int)
(declare-fun prime () Int)
(declare-fun range-check!end () Int)
(declare-fun range-check!start () Int)
(declare-fun range-check-bound () Int)
(assert (and (<= 0 ADDR!1) (< ADDR!1 prime)))
(assert (and (<= 0 ADDR!10) (< ADDR!10 prime)))
(assert (and (<= 0 ADDR!11) (< ADDR!11 prime)))
(assert (and (<= 0 ADDR!12) (< ADDR!12 prime)))
(assert (and (<= 0 ADDR!13) (< ADDR!13 prime)))
(assert (and (<= 0 ADDR!14) (< ADDR!14 prime)))
(assert (and (<= 0 ADDR!15) (< ADDR!15 prime)))
(assert (and (<= 0 ADDR!16) (< ADDR!16 prime)))
(assert (and (<= 0 ADDR!17) (< ADDR!17 prime)))
(assert (and (<= 0 ADDR!18) (< ADDR!18 prime)))
(assert (and (<= 0 ADDR!19) (< ADDR!19 prime)))
(assert (and (<= 0 ADDR!2) (< ADDR!2 prime)))
(assert (and (<= 0 ADDR!20) (< ADDR!20 prime)))
(assert (and (<= 0 ADDR!21) (< ADDR!21 prime)))
(assert (and (<= 0 ADDR!22) (< ADDR!22 prime)))
(assert (and (<= 0 ADDR!23) (< ADDR!23 prime)))
(assert (and (<= 0 ADDR!24) (< ADDR!24 prime)))
(assert (and (<= 0 ADDR!25) (< ADDR!25 prime)))
(assert (and (<= 0 ADDR!26) (< ADDR!26 prime)))
(assert (and (<= 0 ADDR!27) (< ADDR!27 prime)))
(assert (and (<= 0 ADDR!3) (< ADDR!3 prime)))
(assert (and (<= 0 ADDR!4) (< ADDR!4 prime)))
(assert (and (<= 0 ADDR!5) (< ADDR!5 prime)))
(assert (and (<= 0 ADDR!6) (< ADDR!6 prime)))
(assert (and (<= 0 ADDR!7) (< ADDR!7 prime)))
(assert (and (<= 0 ADDR!8) (< ADDR!8 prime)))
(assert (and (<= 0 ADDR!9) (< ADDR!9 prime)))
(assert (and (<= 0 MEM!1) (< MEM!1 prime)))
(assert (and (<= 0 MEM!10) (< MEM!10 prime)))
(assert (and (<= 0 MEM!11) (< MEM!11 prime)))
(assert (and (<= 0 MEM!12) (< MEM!12 prime)))
(assert (and (<= 0 MEM!13) (< MEM!13 prime)))
(assert (and (<= 0 MEM!14) (< MEM!14 prime)))
(assert (and (<= 0 MEM!15) (< MEM!15 prime)))
(assert (and (<= 0 MEM!16) (< MEM!16 prime)))
(assert (and (<= 0 MEM!17) (< MEM!17 prime)))
(assert (and (<= 0 MEM!18) (< MEM!18 prime)))
(assert (and (<= 0 MEM!19) (< MEM!19 prime)))
(assert (and (<= 0 MEM!2) (< MEM!2 prime)))
(assert (and (<= 0 MEM!20) (< MEM!20 prime)))
(assert (and (<= 0 MEM!21) (< MEM!21 prime)))
(assert (and (<= 0 MEM!22) (< MEM!22 prime)))
(assert (and (<= 0 MEM!23) (< MEM!23 prime)))
(assert (and (<= 0 MEM!24) (< MEM!24 prime)))
(assert (and (<= 0 MEM!25) (< MEM!25 prime)))
(assert (and (<= 0 MEM!26) (< MEM!26 prime)))
(assert (and (<= 0 MEM!27) (< MEM!27 prime)))
(assert (and (<= 0 MEM!3) (< MEM!3 prime)))
(assert (and (<= 0 MEM!4) (< MEM!4 prime)))
(assert (and (<= 0 MEM!5) (< MEM!5 prime)))
(assert (and (<= 0 MEM!6) (< MEM!6 prime)))
(assert (and (<= 0 MEM!7) (< MEM!7 prime)))
(assert (and (<= 0 MEM!8) (< MEM!8 prime)))
(assert (and (<= 0 MEM!9) (< MEM!9 prime)))
(assert (and (<= 0 __main__.balance) (< __main__.balance prime)))
(assert (and (<= 0 ap!<root>@5) (< ap!<root>@5 prime)))
(assert (and (<= 0 fp!<51=read/root>) (< fp!<51=read/root> prime)))
(assert (and (<= 0 fp!<58=write/root>) (< fp!<58=write/root> prime)))
(assert (and (<= 0 fp!<root>) (< fp!<root> prime)))
(assert (and (<= 0 pedersen!end) (< pedersen!end prime)))
(assert (and (<= 0 pedersen!start) (< pedersen!start prime)))
(assert (= prime 3618502788666131213697322783095070105623107215331596699973092056135872020481))
(assert (and (<= 0 range-check!end) (< range-check!end prime)))
(assert (and (<= 0 range-check!start) (< range-check!start prime)))
(assert (= range-check-bound 340282366920938463463374607431768211456))
(assert (=> (= ADDR!1 ADDR!2) (= MEM!1 MEM!2)))
(assert (=> (= ADDR!1 ADDR!3) (= MEM!1 MEM!3)))
(assert (=> (= ADDR!1 ADDR!4) (= MEM!1 MEM!4)))
(assert (=> (= ADDR!1 ADDR!5) (= MEM!1 MEM!5)))
(assert (=> (= ADDR!1 ADDR!6) (= MEM!1 MEM!6)))
(assert (=> (= ADDR!1 ADDR!7) (= MEM!1 MEM!7)))
(assert (=> (= ADDR!1 ADDR!8) (= MEM!1 MEM!8)))
(assert (=> (= ADDR!1 ADDR!9) (= MEM!1 MEM!9)))
(assert (=> (= ADDR!1 ADDR!10) (= MEM!1 MEM!10)))
(assert (=> (= ADDR!1 ADDR!11) (= MEM!1 MEM!11)))
(assert (=> (= ADDR!1 ADDR!12) (= MEM!1 MEM!12)))
(assert (=> (= ADDR!1 ADDR!13) (= MEM!1 MEM!13)))
(assert (=> (= ADDR!1 ADDR!14) (= MEM!1 MEM!14)))
(assert (=> (= ADDR!1 ADDR!15) (= MEM!1 MEM!15)))
(assert (=> (= ADDR!1 ADDR!16) (= MEM!1 MEM!16)))
(assert (=> (= ADDR!1 ADDR!17) (= MEM!1 MEM!17)))
(assert (=> (= ADDR!1 ADDR!18) (= MEM!1 MEM!18)))
(assert (=> (= ADDR!1 ADDR!19) (= MEM!1 MEM!19)))
(assert (=> (= ADDR!1 ADDR!20) (= MEM!1 MEM!20)))
(assert (=> (= ADDR!1 ADDR!21) (= MEM!1 MEM!21)))
(assert (=> (= ADDR!1 ADDR!22) (= MEM!1 MEM!22)))
(assert (=> (= ADDR!1 ADDR!23) (= MEM!1 MEM!23)))
(assert (=> (= ADDR!1 ADDR!24) (= MEM!1 MEM!24)))
(assert (=> (= ADDR!1 ADDR!25) (= MEM!1 MEM!25)))
(assert (=> (= ADDR!1 ADDR!26) (= MEM!1 MEM!26)))
(assert (=> (= ADDR!1 ADDR!27) (= MEM!1 MEM!27)))
(assert (=> (= ADDR!2 ADDR!3) (= MEM!2 MEM!3)))
(assert (=> (= ADDR!2 ADDR!4) (= MEM!2 MEM!4)))
(assert (=> (= ADDR!2 ADDR!5) (= MEM!2 MEM!5)))
(assert (=> (= ADDR!2 ADDR!6) (= MEM!2 MEM!6)))
(assert (=> (= ADDR!2 ADDR!7) (= MEM!2 MEM!7)))
(assert (=> (= ADDR!2 ADDR!8) (= MEM!2 MEM!8)))
(assert (=> (= ADDR!2 ADDR!9) (= MEM!2 MEM!9)))
(assert (=> (= ADDR!2 ADDR!10) (= MEM!2 MEM!10)))
(assert (=> (= ADDR!2 ADDR!11) (= MEM!2 MEM!11)))
(assert (=> (= ADDR!2 ADDR!12) (= MEM!2 MEM!12)))
(assert (=> (= ADDR!2 ADDR!13) (= MEM!2 MEM!13)))
(assert (=> (= ADDR!2 ADDR!14) (= MEM!2 MEM!14)))
(assert (=> (= ADDR!2 ADDR!15) (= MEM!2 MEM!15)))
(assert (=> (= ADDR!2 ADDR!16) (= MEM!2 MEM!16)))
(assert (=> (= ADDR!2 ADDR!17) (= MEM!2 MEM!17)))
(assert (=> (= ADDR!2 ADDR!18) (= MEM!2 MEM!18)))
(assert (=> (= ADDR!2 ADDR!19) (= MEM!2 MEM!19)))
(assert (=> (= ADDR!2 ADDR!20) (= MEM!2 MEM!20)))
(assert (=> (= ADDR!2 ADDR!21) (= MEM!2 MEM!21)))
(assert (=> (= ADDR!2 ADDR!22) (= MEM!2 MEM!22)))
(assert (=> (= ADDR!2 ADDR!23) (= MEM!2 MEM!23)))
(assert (=> (= ADDR!2 ADDR!24) (= MEM!2 MEM!24)))
(assert (=> (= ADDR!2 ADDR!25) (= MEM!2 MEM!25)))
(assert (=> (= ADDR!2 ADDR!26) (= MEM!2 MEM!26)))
(assert (=> (= ADDR!2 ADDR!27) (= MEM!2 MEM!27)))
(assert (=> (= ADDR!3 ADDR!4) (= MEM!3 MEM!4)))
(assert (=> (= ADDR!3 ADDR!5) (= MEM!3 MEM!5)))
(assert (=> (= ADDR!3 ADDR!6) (= MEM!3 MEM!6)))
(assert (=> (= ADDR!3 ADDR!7) (= MEM!3 MEM!7)))
(assert (=> (= ADDR!3 ADDR!8) (= MEM!3 MEM!8)))
(assert (=> (= ADDR!3 ADDR!9) (= MEM!3 MEM!9)))
(assert (=> (= ADDR!3 ADDR!10) (= MEM!3 MEM!10)))
(assert (=> (= ADDR!3 ADDR!11) (= MEM!3 MEM!11)))
(assert (=> (= ADDR!3 ADDR!12) (= MEM!3 MEM!12)))
(assert (=> (= ADDR!3 ADDR!13) (= MEM!3 MEM!13)))
(assert (=> (= ADDR!3 ADDR!14) (= MEM!3 MEM!14)))
(assert (=> (= ADDR!3 ADDR!15) (= MEM!3 MEM!15)))
(assert (=> (= ADDR!3 ADDR!16) (= MEM!3 MEM!16)))
(assert (=> (= ADDR!3 ADDR!17) (= MEM!3 MEM!17)))
(assert (=> (= ADDR!3 ADDR!18) (= MEM!3 MEM!18)))
(assert (=> (= ADDR!3 ADDR!19) (= MEM!3 MEM!19)))
(assert (=> (= ADDR!3 ADDR!20) (= MEM!3 MEM!20)))
(assert (=> (= ADDR!3 ADDR!21) (= MEM!3 MEM!21)))
(assert (=> (= ADDR!3 ADDR!22) (= MEM!3 MEM!22)))
(assert (=> (= ADDR!3 ADDR!23) (= MEM!3 MEM!23)))
(assert (=> (= ADDR!3 ADDR!24) (= MEM!3 MEM!24)))
(assert (=> (= ADDR!3 ADDR!25) (= MEM!3 MEM!25)))
(assert (=> (= ADDR!3 ADDR!26) (= MEM!3 MEM!26)))
(assert (=> (= ADDR!3 ADDR!27) (= MEM!3 MEM!27)))
(assert (=> (= ADDR!4 ADDR!5) (= MEM!4 MEM!5)))
(assert (=> (= ADDR!4 ADDR!6) (= MEM!4 MEM!6)))
(assert (=> (= ADDR!4 ADDR!7) (= MEM!4 MEM!7)))
(assert (=> (= ADDR!4 ADDR!8) (= MEM!4 MEM!8)))
(assert (=> (= ADDR!4 ADDR!9) (= MEM!4 MEM!9)))
(assert (=> (= ADDR!4 ADDR!10) (= MEM!4 MEM!10)))
(assert (=> (= ADDR!4 ADDR!11) (= MEM!4 MEM!11)))
(assert (=> (= ADDR!4 ADDR!12) (= MEM!4 MEM!12)))
(assert (=> (= ADDR!4 ADDR!13) (= MEM!4 MEM!13)))
(assert (=> (= ADDR!4 ADDR!14) (= MEM!4 MEM!14)))
(assert (=> (= ADDR!4 ADDR!15) (= MEM!4 MEM!15)))
(assert (=> (= ADDR!4 ADDR!16) (= MEM!4 MEM!16)))
(assert (=> (= ADDR!4 ADDR!17) (= MEM!4 MEM!17)))
(assert (=> (= ADDR!4 ADDR!18) (= MEM!4 MEM!18)))
(assert (=> (= ADDR!4 ADDR!19) (= MEM!4 MEM!19)))
(assert (=> (= ADDR!4 ADDR!20) (= MEM!4 MEM!20)))
(assert (=> (= ADDR!4 ADDR!21) (= MEM!4 MEM!21)))
(assert (=> (= ADDR!4 ADDR!22) (= MEM!4 MEM!22)))
(assert (=> (= ADDR!4 ADDR!23) (= MEM!4 MEM!23)))
(assert (=> (= ADDR!4 ADDR!24) (= MEM!4 MEM!24)))
(assert (=> (= ADDR!4 ADDR!25) (= MEM!4 MEM!25)))
(assert (=> (= ADDR!4 ADDR!26) (= MEM!4 MEM!26)))
(assert (=> (= ADDR!4 ADDR!27) (= MEM!4 MEM!27)))
(assert (=> (= ADDR!5 ADDR!6) (= MEM!5 MEM!6)))
(assert (=> (= ADDR!5 ADDR!7) (= MEM!5 MEM!7)))
(assert (=> (= ADDR!5 ADDR!8) (= MEM!5 MEM!8)))
(assert (=> (= ADDR!5 ADDR!9) (= MEM!5 MEM!9)))
(assert (=> (= ADDR!5 ADDR!10) (= MEM!5 MEM!10)))
(assert (=> (= ADDR!5 ADDR!11) (= MEM!5 MEM!11)))
(assert (=> (= ADDR!5 ADDR!12) (= MEM!5 MEM!12)))
(assert (=> (= ADDR!5 ADDR!13) (= MEM!5 MEM!13)))
(assert (=> (= ADDR!5 ADDR!14) (= MEM!5 MEM!14)))
(assert (=> (= ADDR!5 ADDR!15) (= MEM!5 MEM!15)))
(assert (=> (= ADDR!5 ADDR!16) (= MEM!5 MEM!16)))
(assert (=> (= ADDR!5 ADDR!17) (= MEM!5 MEM!17)))
(assert (=> (= ADDR!5 ADDR!18) (= MEM!5 MEM!18)))
(assert (=> (= ADDR!5 ADDR!19) (= MEM!5 MEM!19)))
(assert (=> (= ADDR!5 ADDR!20) (= MEM!5 MEM!20)))
(assert (=> (= ADDR!5 ADDR!21) (= MEM!5 MEM!21)))
(assert (=> (= ADDR!5 ADDR!22) (= MEM!5 MEM!22)))
(assert (=> (= ADDR!5 ADDR!23) (= MEM!5 MEM!23)))
(assert (=> (= ADDR!5 ADDR!24) (= MEM!5 MEM!24)))
(assert (=> (= ADDR!5 ADDR!25) (= MEM!5 MEM!25)))
(assert (=> (= ADDR!5 ADDR!26) (= MEM!5 MEM!26)))
(assert (=> (= ADDR!5 ADDR!27) (= MEM!5 MEM!27)))
(assert (=> (= ADDR!6 ADDR!7) (= MEM!6 MEM!7)))
(assert (=> (= ADDR!6 ADDR!8) (= MEM!6 MEM!8)))
(assert (=> (= ADDR!6 ADDR!9) (= MEM!6 MEM!9)))
(assert (=> (= ADDR!6 ADDR!10) (= MEM!6 MEM!10)))
(assert (=> (= ADDR!6 ADDR!11) (= MEM!6 MEM!11)))
(assert (=> (= ADDR!6 ADDR!12) (= MEM!6 MEM!12)))
(assert (=> (= ADDR!6 ADDR!13) (= MEM!6 MEM!13)))
(assert (=> (= ADDR!6 ADDR!14) (= MEM!6 MEM!14)))
(assert (=> (= ADDR!6 ADDR!15) (= MEM!6 MEM!15)))
(assert (=> (= ADDR!6 ADDR!16) (= MEM!6 MEM!16)))
(assert (=> (= ADDR!6 ADDR!17) (= MEM!6 MEM!17)))
(assert (=> (= ADDR!6 ADDR!18) (= MEM!6 MEM!18)))
(assert (=> (= ADDR!6 ADDR!19) (= MEM!6 MEM!19)))
(assert (=> (= ADDR!6 ADDR!20) (= MEM!6 MEM!20)))
(assert (=> (= ADDR!6 ADDR!21) (= MEM!6 MEM!21)))
(assert (=> (= ADDR!6 ADDR!22) (= MEM!6 MEM!22)))
(assert (=> (= ADDR!6 ADDR!23) (= MEM!6 MEM!23)))
(assert (=> (= ADDR!6 ADDR!24) (= MEM!6 MEM!24)))
(assert (=> (= ADDR!6 ADDR!25) (= MEM!6 MEM!25)))
(assert (=> (= ADDR!6 ADDR!26) (= MEM!6 MEM!26)))
(assert (=> (= ADDR!6 ADDR!27) (= MEM!6 MEM!27)))
(assert (=> (= ADDR!7 ADDR!8) (= MEM!7 MEM!8)))
(assert (=> (= ADDR!7 ADDR!9) (= MEM!7 MEM!9)))
(assert (=> (= ADDR!7 ADDR!10) (= MEM!7 MEM!10)))
(assert (=> (= ADDR!7 ADDR!11) (= MEM!7 MEM!11)))
(assert (=> (= ADDR!7 ADDR!12) (= MEM!7 MEM!12)))
(assert (=> (= ADDR!7 ADDR!13) (= MEM!7 MEM!13)))
(assert (=> (= ADDR!7 ADDR!14) (= MEM!7 MEM!14)))
(assert (=> (= ADDR!7 ADDR!15) (= MEM!7 MEM!15)))
(assert (=> (= ADDR!7 ADDR!16) (= MEM!7 MEM!16)))
(assert (=> (= ADDR!7 ADDR!17) (= MEM!7 MEM!17)))
(assert (=> (= ADDR!7 ADDR!18) (= MEM!7 MEM!18)))
(assert (=> (= ADDR!7 ADDR!19) (= MEM!7 MEM!19)))
(assert (=> (= ADDR!7 ADDR!20) (= MEM!7 MEM!20)))
(assert (=> (= ADDR!7 ADDR!21) (= MEM!7 MEM!21)))
(assert (=> (= ADDR!7 ADDR!22) (= MEM!7 MEM!22)))
(assert (=> (= ADDR!7 ADDR!23) (= MEM!7 MEM!23)))
(assert (=> (= ADDR!7 ADDR!24) (= MEM!7 MEM!24)))
(assert (=> (= ADDR!7 ADDR!25) (= MEM!7 MEM!25)))
(assert (=> (= ADDR!7 ADDR!26) (= MEM!7 MEM!26)))
(assert (=> (= ADDR!7 ADDR!27) (= MEM!7 MEM!27)))
(assert (=> (= ADDR!8 ADDR!9) (= MEM!8 MEM!9)))
(assert (=> (= ADDR!8 ADDR!10) (= MEM!8 MEM!10)))
(assert (=> (= ADDR!8 ADDR!11) (= MEM!8 MEM!11)))
(assert (=> (= ADDR!8 ADDR!12) (= MEM!8 MEM!12)))
(assert (=> (= ADDR!8 ADDR!13) (= MEM!8 MEM!13)))
(assert (=> (= ADDR!8 ADDR!14) (= MEM!8 MEM!14)))
(assert (=> (= ADDR!8 ADDR!15) (= MEM!8 MEM!15)))
(assert (=> (= ADDR!8 ADDR!16) (= MEM!8 MEM!16)))
(assert (=> (= ADDR!8 ADDR!17) (= MEM!8 MEM!17)))
(assert (=> (= ADDR!8 ADDR!18) (= MEM!8 MEM!18)))
(assert (=> (= ADDR!8 ADDR!19) (= MEM!8 MEM!19)))
(assert (=> (= ADDR!8 ADDR!20) (= MEM!8 MEM!20)))
(assert (=> (= ADDR!8 ADDR!21) (= MEM!8 MEM!21)))
(assert (=> (= ADDR!8 ADDR!22) (= MEM!8 MEM!22)))
(assert (=> (= ADDR!8 ADDR!23) (= MEM!8 MEM!23)))
(assert (=> (= ADDR!8 ADDR!24) (= MEM!8 MEM!24)))
(assert (=> (= ADDR!8 ADDR!25) (= MEM!8 MEM!25)))
(assert (=> (= ADDR!8 ADDR!26) (= MEM!8 MEM!26)))
(assert (=> (= ADDR!8 ADDR!27) (= MEM!8 MEM!27)))
(assert (=> (= ADDR!9 ADDR!10) (= MEM!9 MEM!10)))
(assert (=> (= ADDR!9 ADDR!11) (= MEM!9 MEM!11)))
(assert (=> (= ADDR!9 ADDR!12) (= MEM!9 MEM!12)))
(assert (=> (= ADDR!9 ADDR!13) (= MEM!9 MEM!13)))
(assert (=> (= ADDR!9 ADDR!14) (= MEM!9 MEM!14)))
(assert (=> (= ADDR!9 ADDR!15) (= MEM!9 MEM!15)))
(assert (=> (= ADDR!9 ADDR!16) (= MEM!9 MEM!16)))
(assert (=> (= ADDR!9 ADDR!17) (= MEM!9 MEM!17)))
(assert (=> (= ADDR!9 ADDR!18) (= MEM!9 MEM!18)))
(assert (=> (= ADDR!9 ADDR!19) (= MEM!9 MEM!19)))
(assert (=> (= ADDR!9 ADDR!20) (= MEM!9 MEM!20)))
(assert (=> (= ADDR!9 ADDR!21) (= MEM!9 MEM!21)))
(assert (=> (= ADDR!9 ADDR!22) (= MEM!9 MEM!22)))
(assert (=> (= ADDR!9 ADDR!23) (= MEM!9 MEM!23)))
(assert (=> (= ADDR!9 ADDR!24) (= MEM!9 MEM!24)))
(assert (=> (= ADDR!9 ADDR!25) (= MEM!9 MEM!25)))
(assert (=> (= ADDR!9 ADDR!26) (= MEM!9 MEM!26)))
(assert (=> (= ADDR!9 ADDR!27) (= MEM!9 MEM!27)))
(assert (=> (= ADDR!10 ADDR!11) (= MEM!10 MEM!11)))
(assert (=> (= ADDR!10 ADDR!12) (= MEM!10 MEM!12)))
(assert (=> (= ADDR!10 ADDR!13) (= MEM!10 MEM!13)))
(assert (=> (= ADDR!10 ADDR!14) (= MEM!10 MEM!14)))
(assert (=> (= ADDR!10 ADDR!15) (= MEM!10 MEM!15)))
(assert (=> (= ADDR!10 ADDR!16) (= MEM!10 MEM!16)))
(assert (=> (= ADDR!10 ADDR!17) (= MEM!10 MEM!17)))
(assert (=> (= ADDR!10 ADDR!18) (= MEM!10 MEM!18)))
(assert (=> (= ADDR!10 ADDR!19) (= MEM!10 MEM!19)))
(assert (=> (= ADDR!10 ADDR!20) (= MEM!10 MEM!20)))
(assert (=> (= ADDR!10 ADDR!21) (= MEM!10 MEM!21)))
(assert (=> (= ADDR!10 ADDR!22) (= MEM!10 MEM!22)))
(assert (=> (= ADDR!10 ADDR!23) (= MEM!10 MEM!23)))
(assert (=> (= ADDR!10 ADDR!24) (= MEM!10 MEM!24)))
(assert (=> (= ADDR!10 ADDR!25) (= MEM!10 MEM!25)))
(assert (=> (= ADDR!10 ADDR!26) (= MEM!10 MEM!26)))
(assert (=> (= ADDR!10 ADDR!27) (= MEM!10 MEM!27)))
(assert (=> (= ADDR!11 ADDR!12) (= MEM!11 MEM!12)))
(assert (=> (= ADDR!11 ADDR!13) (= MEM!11 MEM!13)))
(assert (=> (= ADDR!11 ADDR!14) (= MEM!11 MEM!14)))
(assert (=> (= ADDR!11 ADDR!15) (= MEM!11 MEM!15)))
(assert (=> (= ADDR!11 ADDR!16) (= MEM!11 MEM!16)))
(assert (=> (= ADDR!11 ADDR!17) (= MEM!11 MEM!17)))
(assert (=> (= ADDR!11 ADDR!18) (= MEM!11 MEM!18)))
(assert (=> (= ADDR!11 ADDR!19) (= MEM!11 MEM!19)))
(assert (=> (= ADDR!11 ADDR!20) (= MEM!11 MEM!20)))
(assert (=> (= ADDR!11 ADDR!21) (= MEM!11 MEM!21)))
(assert (=> (= ADDR!11 ADDR!22) (= MEM!11 MEM!22)))
(assert (=> (= ADDR!11 ADDR!23) (= MEM!11 MEM!23)))
(assert (=> (= ADDR!11 ADDR!24) (= MEM!11 MEM!24)))
(assert (=> (= ADDR!11 ADDR!25) (= MEM!11 MEM!25)))
(assert (=> (= ADDR!11 ADDR!26) (= MEM!11 MEM!26)))
(assert (=> (= ADDR!11 ADDR!27) (= MEM!11 MEM!27)))
(assert (=> (= ADDR!12 ADDR!13) (= MEM!12 MEM!13)))
(assert (=> (= ADDR!12 ADDR!14) (= MEM!12 MEM!14)))
(assert (=> (= ADDR!12 ADDR!15) (= MEM!12 MEM!15)))
(assert (=> (= ADDR!12 ADDR!16) (= MEM!12 MEM!16)))
(assert (=> (= ADDR!12 ADDR!17) (= MEM!12 MEM!17)))
(assert (=> (= ADDR!12 ADDR!18) (= MEM!12 MEM!18)))
(assert (=> (= ADDR!12 ADDR!19) (= MEM!12 MEM!19)))
(assert (=> (= ADDR!12 ADDR!20) (= MEM!12 MEM!20)))
(assert (=> (= ADDR!12 ADDR!21) (= MEM!12 MEM!21)))
(assert (=> (= ADDR!12 ADDR!22) (= MEM!12 MEM!22)))
(assert (=> (= ADDR!12 ADDR!23) (= MEM!12 MEM!23)))
(assert (=> (= ADDR!12 ADDR!24) (= MEM!12 MEM!24)))
(assert (=> (= ADDR!12 ADDR!25) (= MEM!12 MEM!25)))
(assert (=> (= ADDR!12 ADDR!26) (= MEM!12 MEM!26)))
(assert (=> (= ADDR!12 ADDR!27) (= MEM!12 MEM!27)))
(assert (=> (= ADDR!13 ADDR!14) (= MEM!13 MEM!14)))
(assert (=> (= ADDR!13 ADDR!15) (= MEM!13 MEM!15)))
(assert (=> (= ADDR!13 ADDR!16) (= MEM!13 MEM!16)))
(assert (=> (= ADDR!13 ADDR!17) (= MEM!13 MEM!17)))
(assert (=> (= ADDR!13 ADDR!18) (= MEM!13 MEM!18)))
(assert (=> (= ADDR!13 ADDR!19) (= MEM!13 MEM!19)))
(assert (=> (= ADDR!13 ADDR!20) (= MEM!13 MEM!20)))
(assert (=> (= ADDR!13 ADDR!21) (= MEM!13 MEM!21)))
(assert (=> (= ADDR!13 ADDR!22) (= MEM!13 MEM!22)))
(assert (=> (= ADDR!13 ADDR!23) (= MEM!13 MEM!23)))
(assert (=> (= ADDR!13 ADDR!24) (= MEM!13 MEM!24)))
(assert (=> (= ADDR!13 ADDR!25) (= MEM!13 MEM!25)))
(assert (=> (= ADDR!13 ADDR!26) (= MEM!13 MEM!26)))
(assert (=> (= ADDR!13 ADDR!27) (= MEM!13 MEM!27)))
(assert (=> (= ADDR!14 ADDR!15) (= MEM!14 MEM!15)))
(assert (=> (= ADDR!14 ADDR!16) (= MEM!14 MEM!16)))
(assert (=> (= ADDR!14 ADDR!17) (= MEM!14 MEM!17)))
(assert (=> (= ADDR!14 ADDR!18) (= MEM!14 MEM!18)))
(assert (=> (= ADDR!14 ADDR!19) (= MEM!14 MEM!19)))
(assert (=> (= ADDR!14 ADDR!20) (= MEM!14 MEM!20)))
(assert (=> (= ADDR!14 ADDR!21) (= MEM!14 MEM!21)))
(assert (=> (= ADDR!14 ADDR!22) (= MEM!14 MEM!22)))
(assert (=> (= ADDR!14 ADDR!23) (= MEM!14 MEM!23)))
(assert (=> (= ADDR!14 ADDR!24) (= MEM!14 MEM!24)))
(assert (=> (= ADDR!14 ADDR!25) (= MEM!14 MEM!25)))
(assert (=> (= ADDR!14 ADDR!26) (= MEM!14 MEM!26)))
(assert (=> (= ADDR!14 ADDR!27) (= MEM!14 MEM!27)))
(assert (=> (= ADDR!15 ADDR!16) (= MEM!15 MEM!16)))
(assert (=> (= ADDR!15 ADDR!17) (= MEM!15 MEM!17)))
(assert (=> (= ADDR!15 ADDR!18) (= MEM!15 MEM!18)))
(assert (=> (= ADDR!15 ADDR!19) (= MEM!15 MEM!19)))
(assert (=> (= ADDR!15 ADDR!20) (= MEM!15 MEM!20)))
(assert (=> (= ADDR!15 ADDR!21) (= MEM!15 MEM!21)))
(assert (=> (= ADDR!15 ADDR!22) (= MEM!15 MEM!22)))
(assert (=> (= ADDR!15 ADDR!23) (= MEM!15 MEM!23)))
(assert (=> (= ADDR!15 ADDR!24) (= MEM!15 MEM!24)))
(assert (=> (= ADDR!15 ADDR!25) (= MEM!15 MEM!25)))
(assert (=> (= ADDR!15 ADDR!26) (= MEM!15 MEM!26)))
(assert (=> (= ADDR!15 ADDR!27) (= MEM!15 MEM!27)))
(assert (=> (= ADDR!16 ADDR!17) (= MEM!16 MEM!17)))
(assert (=> (= ADDR!16 ADDR!18) (= MEM!16 MEM!18)))
(assert (=> (= ADDR!16 ADDR!19) (= MEM!16 MEM!19)))
(assert (=> (= ADDR!16 ADDR!20) (= MEM!16 MEM!20)))
(assert (=> (= ADDR!16 ADDR!21) (= MEM!16 MEM!21)))
(assert (=> (= ADDR!16 ADDR!22) (= MEM!16 MEM!22)))
(assert (=> (= ADDR!16 ADDR!23) (= MEM!16 MEM!23)))
(assert (=> (= ADDR!16 ADDR!24) (= MEM!16 MEM!24)))
(assert (=> (= ADDR!16 ADDR!25) (= MEM!16 MEM!25)))
(assert (=> (= ADDR!16 ADDR!26) (= MEM!16 MEM!26)))
(assert (=> (= ADDR!16 ADDR!27) (= MEM!16 MEM!27)))
(assert (=> (= ADDR!17 ADDR!18) (= MEM!17 MEM!18)))
(assert (=> (= ADDR!17 ADDR!19) (= MEM!17 MEM!19)))
(assert (=> (= ADDR!17 ADDR!20) (= MEM!17 MEM!20)))
(assert (=> (= ADDR!17 ADDR!21) (= MEM!17 MEM!21)))
(assert (=> (= ADDR!17 ADDR!22) (= MEM!17 MEM!22)))
(assert (=> (= ADDR!17 ADDR!23) (= MEM!17 MEM!23)))
(assert (=> (= ADDR!17 ADDR!24) (= MEM!17 MEM!24)))
(assert (=> (= ADDR!17 ADDR!25) (= MEM!17 MEM!25)))
(assert (=> (= ADDR!17 ADDR!26) (= MEM!17 MEM!26)))
(assert (=> (= ADDR!17 ADDR!27) (= MEM!17 MEM!27)))
(assert (=> (= ADDR!18 ADDR!19) (= MEM!18 MEM!19)))
(assert (=> (= ADDR!18 ADDR!20) (= MEM!18 MEM!20)))
(assert (=> (= ADDR!18 ADDR!21) (= MEM!18 MEM!21)))
(assert (=> (= ADDR!18 ADDR!22) (= MEM!18 MEM!22)))
(assert (=> (= ADDR!18 ADDR!23) (= MEM!18 MEM!23)))
(assert (=> (= ADDR!18 ADDR!24) (= MEM!18 MEM!24)))
(assert (=> (= ADDR!18 ADDR!25) (= MEM!18 MEM!25)))
(assert (=> (= ADDR!18 ADDR!26) (= MEM!18 MEM!26)))
(assert (=> (= ADDR!18 ADDR!27) (= MEM!18 MEM!27)))
(assert (=> (= ADDR!19 ADDR!20) (= MEM!19 MEM!20)))
(assert (=> (= ADDR!19 ADDR!21) (= MEM!19 MEM!21)))
(assert (=> (= ADDR!19 ADDR!22) (= MEM!19 MEM!22)))
(assert (=> (= ADDR!19 ADDR!23) (= MEM!19 MEM!23)))
(assert (=> (= ADDR!19 ADDR!24) (= MEM!19 MEM!24)))
(assert (=> (= ADDR!19 ADDR!25) (= MEM!19 MEM!25)))
(assert (=> (= ADDR!19 ADDR!26) (= MEM!19 MEM!26)))
(assert (=> (= ADDR!19 ADDR!27) (= MEM!19 MEM!27)))
(assert (=> (= ADDR!20 ADDR!21) (= MEM!20 MEM!21)))
(assert (=> (= ADDR!20 ADDR!22) (= MEM!20 MEM!22)))
(assert (=> (= ADDR!20 ADDR!23) (= MEM!20 MEM!23)))
(assert (=> (= ADDR!20 ADDR!24) (= MEM!20 MEM!24)))
(assert (=> (= ADDR!20 ADDR!25) (= MEM!20 MEM!25)))
(assert (=> (= ADDR!20 ADDR!26) (= MEM!20 MEM!26)))
(assert (=> (= ADDR!20 ADDR!27) (= MEM!20 MEM!27)))
(assert (=> (= ADDR!21 ADDR!22) (= MEM!21 MEM!22)))
(assert (=> (= ADDR!21 ADDR!23) (= MEM!21 MEM!23)))
(assert (=> (= ADDR!21 ADDR!24) (= MEM!21 MEM!24)))
(assert (=> (= ADDR!21 ADDR!25) (= MEM!21 MEM!25)))
(assert (=> (= ADDR!21 ADDR!26) (= MEM!21 MEM!26)))
(assert (=> (= ADDR!21 ADDR!27) (= MEM!21 MEM!27)))
(assert (=> (= ADDR!22 ADDR!23) (= MEM!22 MEM!23)))
(assert (=> (= ADDR!22 ADDR!24) (= MEM!22 MEM!24)))
(assert (=> (= ADDR!22 ADDR!25) (= MEM!22 MEM!25)))
(assert (=> (= ADDR!22 ADDR!26) (= MEM!22 MEM!26)))
(assert (=> (= ADDR!22 ADDR!27) (= MEM!22 MEM!27)))
(assert (=> (= ADDR!23 ADDR!24) (= MEM!23 MEM!24)))
(assert (=> (= ADDR!23 ADDR!25) (= MEM!23 MEM!25)))
(assert (=> (= ADDR!23 ADDR!26) (= MEM!23 MEM!26)))
(assert (=> (= ADDR!23 ADDR!27) (= MEM!23 MEM!27)))
(assert (=> (= ADDR!24 ADDR!25) (= MEM!24 MEM!25)))
(assert (=> (= ADDR!24 ADDR!26) (= MEM!24 MEM!26)))
(assert (=> (= ADDR!24 ADDR!27) (= MEM!24 MEM!27)))
(assert (=> (= ADDR!25 ADDR!26) (= MEM!25 MEM!26)))
(assert (=> (= ADDR!25 ADDR!27) (= MEM!25 MEM!27)))
(assert (=> (= ADDR!26 ADDR!27) (= MEM!26 MEM!27)))
(assert (= ADDR!1 (mod (+ fp!<root> (- 3)) prime)))
(assert (= ADDR!2 (mod (+ fp!<root> (- 1)) prime)))
(assert (= ADDR!3 (mod (+ ap!<root>@5 1) prime)))
(assert (= ADDR!4 (mod (+ fp!<root> (- 6)) prime)))
(assert (= ADDR!5 (mod (+ ap!<root>@5 2) prime)))
(assert (= ADDR!6 (mod (+ fp!<root> (- 5)) prime)))
(assert (= ADDR!7 (mod (+ ap!<root>@5 3) prime)))
(assert (= ADDR!8 (mod (+ fp!<root> (- 4)) prime)))
(assert (= ADDR!9 (mod (+ ap!<root>@5 4) prime)))
(assert (= ADDR!10 (mod (+ ap!<root>@5 5) prime)))
(assert (= ADDR!11 (mod (+ ap!<root>@5 23) prime)))
(assert (= ADDR!12 fp!<root>))
(assert (= ADDR!13 (mod (+ ap!<root>@5 24) prime)))
(assert (= ADDR!14 (mod (+ ap!<root>@5 20) prime)))
(assert (= ADDR!15 (mod (+ ap!<root>@5 25) prime)))
(assert (= ADDR!16 (mod (+ ap!<root>@5 21) prime)))
(assert (= ADDR!17 (mod (+ ap!<root>@5 26) prime)))
(assert (= ADDR!18 (mod (+ ap!<root>@5 22) prime)))
(assert (= ADDR!19 (mod (+ ap!<root>@5 27) prime)))
(assert (= ADDR!20 (mod (+ ap!<root>@5 28) prime)))
(assert (= ADDR!21 (mod (+ ap!<root>@5 29) prime)))
(assert (= ADDR!22 (mod (+ ap!<root>@5 44) prime)))
(assert (= ADDR!23 (mod (+ fp!<51=read/root> (- 4)) prime)))
(assert (= ADDR!24 (mod (+ fp!<58=write/root> (- 5)) prime)))
(assert (= ADDR!25 (mod (+ ap!<root>@5 45) prime)))
(assert (= ADDR!26 (mod (+ fp!<51=read/root> (- 3)) prime)))
(assert (= ADDR!27 (mod (+ fp!<58=write/root> (- 4)) prime)))
(assert (<= fp!<root> ap!<root>@5))
(assert (= ap!<root>@5 fp!<root>))
(assert (= MEM!4 MEM!3))
(assert (= MEM!6 MEM!5))
(assert (= MEM!8 MEM!7))
(assert (and (= fp!<51=read/root> (mod (+ ap!<root>@5 6) prime)) (= MEM!9 fp!<root>) (= MEM!10 53)))
(assert true)
(assert (= MEM!11 __main__.balance))
(assert (= MEM!11 MEM!12))
(assert (= MEM!14 MEM!13))
(assert (= MEM!16 MEM!15))
(assert (= MEM!18 MEM!17))
(assert (= (mod (+ MEM!12 MEM!1) prime) MEM!19))
(assert (and (= fp!<58=write/root> (mod (+ ap!<root>@5 30) prime)) (= MEM!20 fp!<root>) (= MEM!21 60)))
(assert (< (mod (+ ap!<root>@5 28) prime) (mod (+ ap!<root>@5 46) prime)))
(assert (and (<= pedersen!start MEM!6) (<= MEM!22 pedersen!end)))
(assert true)
(assert true)
(assert true)
(assert (and (<= MEM!23 MEM!16) (<= pedersen!start MEM!16)))
(assert true)
(assert true)
(assert true)
(assert true)
(assert (=> (or (<= pedersen!start MEM!12) (<= pedersen!start MEM!1)) (= (+ MEM!12 MEM!1) (mod (+ MEM!12 MEM!1) prime))))
(assert (and (<= MEM!24 MEM!22) (<= pedersen!start MEM!22)))
(assert (and (<= range-check!start MEM!8) (<= MEM!25 range-check!end)))
(assert (=> (and (<= range-check!start (mod (+ fp!<root> (- 6)) prime)) (< (mod (+ fp!<root> (- 6)) prime) range-check!end)) (<= 0 MEM!4 (mod (+ range-check-bound (- 1)) prime))))
(assert (=> (and (<= range-check!start (mod (+ fp!<root> (- 5)) prime)) (< (mod (+ fp!<root> (- 5)) prime) range-check!end)) (<= 0 MEM!6 (mod (+ range-check-bound (- 1)) prime))))
(assert (=> (and (<= range-check!start (mod (+ fp!<root> (- 4)) prime)) (< (mod (+ fp!<root> (- 4)) prime) range-check!end)) (<= 0 MEM!8 (mod (+ range-check-bound (- 1)) prime))))
(assert (and (<= MEM!26 MEM!18) (<= range-check!start MEM!18)))
(assert (=> (and (<= range-check!start (mod (+ ap!<root>@5 23) prime)) (< (mod (+ ap!<root>@5 23) prime) range-check!end)) (<= 0 MEM!11 (mod (+ range-check-bound (- 1)) prime))))
(assert (=> (and (<= range-check!start (mod (+ ap!<root>@5 20) prime)) (< (mod (+ ap!<root>@5 20) prime) range-check!end)) (<= 0 MEM!14 (mod (+ range-check-bound (- 1)) prime))))
(assert (=> (and (<= range-check!start (mod (+ ap!<root>@5 21) prime)) (< (mod (+ ap!<root>@5 21) prime) range-check!end)) (<= 0 MEM!16 (mod (+ range-check-bound (- 1)) prime))))
(assert (=> (and (<= range-check!start (mod (+ ap!<root>@5 22) prime)) (< (mod (+ ap!<root>@5 22) prime) range-check!end)) (<= 0 MEM!18 (mod (+ range-check-bound (- 1)) prime))))
(assert (=> (or (<= range-check!start MEM!12) (<= range-check!start MEM!1)) (= (+ MEM!12 MEM!1) (mod (+ MEM!12 MEM!1) prime))))
(assert (and (<= MEM!27 MEM!25) (<= range-check!start MEM!25)))
(assert (not (and (<= MEM!6 MEM!22) (<= pedersen!start MEM!22) (<= pedersen!start MEM!23) (<= MEM!16 pedersen!end) (<= pedersen!start MEM!24) (<= MEM!22 pedersen!end) (<= MEM!8 MEM!25) (<= range-check!start MEM!25) (<= range-check!start MEM!26) (<= MEM!18 range-check!end) (<= range-check!start MEM!27) (<= MEM!25 range-check!end) (= (mod (+ __main__.balance MEM!1) prime) __main__.balance))))
(check-sat)